//Dat File

outFile="MPVSBPP_SET1_IT200_ITV2_NT1_TS3_WT1_VT1_REP7";
m=200;
o=42;
p=3;
numVTypes=1;

demand = [6, 11, 4, 1, 3, 11, 5, 9, 2, 8, 3, 11, 3, 4, 2, 10, 8, 1, 3, 9, 5, 10, 10, 3, 1, 6, 8, 7, 9, 2, 1, 7, 3, 9, 7, 7, 1, 4, 5, 8, 3, 10, 9, 7, 6, 7, 11, 4, 10, 5, 4, 10, 11, 4, 5, 6, 1, 5, 5, 7, 8, 2, 9, 4, 3, 5, 8, 10, 3, 5, 10, 5, 1, 9, 7, 6, 5, 9, 11, 11, 3, 5, 10, 4, 6, 7, 6, 3, 6, 8, 11, 3, 5, 7, 2, 8, 7, 7, 10, 7, 18, 17, 14, 13, 13, 15, 14, 19, 19, 16, 17, 18, 17, 13, 13, 12, 18, 17, 19, 13, 16, 15, 19, 12, 12, 17, 14, 18, 14, 13, 18, 14, 19, 17, 18, 19, 14, 13, 16, 14, 17, 19, 16, 16, 19, 15, 12, 18, 16, 16, 14, 15, 15, 15, 18, 14, 15, 19, 18, 17, 18, 13, 19, 14, 12, 14, 14, 16, 15, 18, 13, 12, 12, 14, 19, 16, 17, 19, 13, 12, 17, 12, 18, 16, 14, 16, 15, 12, 19, 14, 16, 18, 15, 18, 19, 13, 15, 12, 17, 14];
Depot_Cap = [30000, 30000, 30000];
Tarif = [10, 3, 7];
VeicVolume = [100];
VeicCost = [100];
VeicType = [1, 1, 1, 1, 1, 1, 1, 1, 1, 1, 1, 1, 1, 1, 1, 1, 1, 1, 1, 1, 1, 1, 1, 1, 1, 1, 1, 1, 1, 1, 1, 1, 1, 1, 1, 1, 1, 1, 1, 1, 1, 1];
Elect_vehicle = [[70, 100, 30], [70, 100, 30], [70, 100, 30], [70, 100, 30], [70, 100, 30], [70, 100, 30], [70, 100, 30], [70, 100, 30], [70, 100, 30], [70, 100, 30], [70, 100, 30], [70, 100, 30], [70, 100, 30], [70, 100, 30], [70, 100, 30], [70, 100, 30], [70, 100, 30], [70, 100, 30], [70, 100, 30], [70, 100, 30], [70, 100, 30], [70, 100, 30], [70, 100, 30], [70, 100, 30], [70, 100, 30], [70, 100, 30], [70, 100, 30], [70, 100, 30], [70, 100, 30], [70, 100, 30], [70, 100, 30], [70, 100, 30], [70, 100, 30], [70, 100, 30], [70, 100, 30], [70, 100, 30], [70, 100, 30], [70, 100, 30], [70, 100, 30], [70, 100, 30], [70, 100, 30], [70, 100, 30]];